p cnf 18 27
3 5 7 12 -14 -10 -2 0
3 5 -18 -14 -12 -8 -2 0
3 14 -18 -12 -7 -5 -2 0
1 5 7 13 -8 -6 -2 0
5 9 14 -16 -13 -6 -4 0
-16 -18 0
9 -10 0
11 -12 0
8 -7 0
-14 13 0
17 9 0
2 -1 0
-10 -18 0
-7 17 0
8 -12 0
-14 -12 5 7 9 10 0
1 17 -14 5 10 -2 0
17 -1 0
-16 -10 15 0
9 2 0
8 9 0
-3 0
4 0
3 5 11 -18 -6 0
-6 5 -18 7 0
1 -6 -12 7 0
-13 11 -2 14 0
